CMD:
./solvers/bin/cadical --plain --no-reduce -t 1600 ./data/cnfs//qspiflash_dualflexpress_divthree-p106/qspiflash_dualflexpress_divthree-p106.31.cnf

c --- [ banner ] -------------------------------------------------------------
c 
c CaDiCaL SAT Solver
c Copyright (c) 2016-2024
c A. Biere, M. Fleury, N. Froleyks, K. Fazekas, F. Pollitt, T. Faller
c JKU Linz, University of Freiburg, TU Wien
c 
c Version 2.1.3 5296d3d2a9bf48c154ab2acb5e44625776d821bf
c g++ (Gentoo 12.3.1_p20230526 p2) 12.3.1 20230526 -Wall -Wextra -O3 -DNDEBUG
c Sat Aug 9 07:26:21 PDT 2025 Linux cedar2.int.cedar.computecanada.ca 5.14.0-362.24.2.el9_3.x86_64 x86_64
c 
c --- [ limit ] --------------------------------------------------------------
c 
c setting time limit to 1600 seconds real time (due to '-t 1600')
c 
c --- [ parsing input ] ------------------------------------------------------
c 
c reading DIMACS file from './data/cnfs//qspiflash_dualflexpress_divthree-p106/qspiflash_dualflexpress_divthree-p106.31.cnf'
c opening file to read './data/cnfs//qspiflash_dualflexpress_divthree-p106/qspiflash_dualflexpress_divthree-p106.31.cnf'
c found 'p cnf 94710 275666' header
c parsed 275666 clauses in 0.05 seconds process time
c 
c --- [ options ] ------------------------------------------------------------
c 
c   --compact=false                (different from default 'true')
c   --decompose=false              (different from default 'true')
c   --deduplicate=false            (different from default 'true')
c   --elim=false                   (different from default 'true')
c   --probe=false                  (different from default 'true')
c   --reduce=false                 (different from default 'true')
c   --subsume=false                (different from default 'true')
c   --ternary=false                (different from default 'true')
c   --transred=false               (different from default 'true')
c   --vivify=false                 (different from default 'true')
c 
c --- [ solving ] ------------------------------------------------------------
c 
c time measured in process time since initialization
c 
c  seconds  reductions  redundant  irredundant
c         MB    restarts       trail       variables
c          level   conflicts       glue         remaining
c 
c *  0.05 44  0 0   0    0    0  0% 0 257158 82188 87%
c {  0.07 46  0 0   0    0    0  0% 0 257158 82188 87%
c i  0.08 46 30 0   0   10    9 16% 2 257158 82172 87%
c i  0.08 46 36 0   0   18   15 17% 2 257158 82161 87%
c i  0.08 46 38 0   0   60   49 18% 2 257158 82154 87%
c i  0.08 46 37 0   0   64   51 19% 1 257158 82143 87%
c i  0.08 46 41 0   0   86   67 20% 2 257158 82122 87%
c i  0.09 46 27 0  14  190  162 19% 3 257158 82105 87%
c i  0.09 46 26 0  14  193  164 19% 3 257158 82101 87%
c i  0.09 46 26 0  14  196  166 19% 3 257158 81971 87%
c i  0.09 46 24 0  15  217  181 19% 3 257158 81923 86%
c i  0.09 46 22 0  20  244  201 18% 3 257158 81771 86%
c i  0.09 46 21 0  20  255  208 18% 3 257158 81604 86%
c i  0.09 46 21 0  20  256  208 18% 3 257158 81561 86%
c }  0.09 46 21 0  20  262  210 18% 3 257158 79927 84%
c 0  0.09 46 21 0  20  262  210 18% 3 257158 79927 84%
c 
c --- [ result ] -------------------------------------------------------------
c 
s UNSATISFIABLE
c 
c --- [ run-time profiling ] -------------------------------------------------
c 
c process time taken by individual solving procedures
c (percentage relative to process time for solving)
c 
c         0.05   99.71% search
c         0.05   98.92% parse
c         0.03   62.24% lucky
c         0.02   37.43% unstable
c         0.00    0.00% simplify
c   =================================
c         0.05   49.90% solve
c 
c last line shows process time for solving
c (percentage relative to total process time)
c 
c --- [ statistics ] ---------------------------------------------------------
c 
c chronological:               130        49.62 %  of conflicts
c conflicts:                   262      5692.68    per second
c decisions:                   781     16969.41    per second
c fixed:                     14749        15.57 %  of all variables
c learned:                     235        89.69 %  per conflict
c learned_lits:               1953       100.00 %  learned literals
c minimized:                     0         0.00 %  learned literals
c shrunken:                    453        23.20 %  learned literals
c minishrunken:                114         5.84 %  learned literals
c otfs:                          6         2.29 %  of conflict
c propagations:             326374         7.09 M  per second
c restarts:                     20        13.10    interval
c subsumed:                      9         0.00 %  of all clauses
c strengthened:                  6         0.00 %  of all clauses
c 
c seconds are measured in process time for solving
c 
c --- [ resources ] ----------------------------------------------------------
c 
c total process time since initialization:         0.09    seconds
c total real time since initialization:            0.10    seconds
c maximum resident set size of process:           44.92    MB
c 
c --- [ shutting down ] ------------------------------------------------------
c 
c exit 20
